NAME : tsp45_21.222.tour
COMMENT : Length = 222
COMMENT : Found by LKH [Keld Helsgaun]
TYPE : TOUR
DIMENSION : 45
TOUR_SECTION
1
25
28
31
15
7
10
17
23
34
35
44
13
32
5
2
43
12
3
29
27
8
41
6
40
19
30
42
16
11
33
18
39
20
24
9
36
21
14
22
37
45
4
26
38
-1
EOF
